Traveling Salesman Problem/TSP_generados/Aleatorio1621103402_13.tsp
NAME: Aleatorio1621103402_13.tsp
COMMENT: Randomly generated scenario
TYPE: TSP
DIMENSION: 13
EDGE_WEIGHT_TYPE: ATT
NODE_COORD_SECTION
1 34.26 48.34
2 45.67 27.37
3 41.85 38.75
4 49.69 1.72
5 28.17 35.91
6 2.88 31.88
7 48.97 18.68
8 14.17 36.28
9 45.05 49.72
10 18.98 43.48
11 49.96 46.69
12 18.18 31.51
13 41.69 37.86
