Traveling Salesman Problem/TSP_generados/Aleatorio1621103402_13.opt.tour
NAME: Aleatorio1621103402_13.opt.tour
COMMENT: Optimal solution for Aleatorio1621103402_13 (169.82154595064202)
TYPE: TOUR
DIMENSION: 13
TOUR_SECTION
1 9 11 3 13 2 7 4 5 12 6 8 10
-1
EOF
